NAME: ./prFile/tspFile/tsp_file89.tsp
COMMENT: TSP file generated by Python
TYPE: TSP
DIMENSION: 40
EDGE_WEIGHT_TYPE: EUC_2D
NODE_COORD_SECTION
1 50 56
2 100 79
3 75 41
4 94 9
5 70 72
6 61 42
7 34 57
8 97 12
9 46 11
10 52 32
11 79 45
12 20 84
13 46 46
14 92 26
15 91 3
16 16 11
17 31 96
18 69 73
19 50 59
20 87 97
21 58 71
22 39 81
23 41 17
24 19 11
25 44 89
26 55 9
27 72 69
28 69 68
29 8 42
30 29 1
31 44 2
32 65 40
33 93 62
34 92 81
35 48 91
36 30 72
37 88 25
38 29 16
39 84 99
40 17 57
EOF
